(set-logic ALL)
(declare-fun var0 () String)
(assert (str.in_re var0 (re.++ (re.* (re.+ (str.to_re "00"))) (re.++ (re.* (re.+ (str.to_re "11"))) (re.++ (re.* (re.+ (str.to_re "2"))) (re.++ (re.* (re.union (str.to_re "33") (str.to_re "44"))) (re.++ (re.* (re.* (str.to_re "5"))) (re.++ (re.+ (re.union (str.to_re "6") (str.to_re "777"))) (re.++ (re.union (re.union (str.to_re "888") (str.to_re "999")) (re.union (str.to_re "aaa") (str.to_re "b"))) (re.++ (re.* (re.+ (str.to_re "cc"))) (re.++ (re.* (re.union (str.to_re "ddd") (str.to_re "eee"))) (re.++ (re.union (re.+ (str.to_re "ff")) (re.+ (str.to_re "gg"))) (re.++ (re.+ (re.* (str.to_re "hhh"))) (re.++ (re.* (re.union (str.to_re "iii") (str.to_re "jj"))) (re.++ (re.union (re.union (str.to_re "kk") (str.to_re "ll")) (re.union (str.to_re "mm") (str.to_re "nn"))) (re.++ (re.* (re.* (str.to_re "o"))) (re.++ (re.+ (re.union (str.to_re "ppp") (str.to_re "qqq"))) (re.++ (re.* (re.* (str.to_re "rr"))) (re.++ (re.union (re.union (str.to_re "sss") (str.to_re "t")) (re.union (str.to_re "u") (str.to_re "vv"))) (re.++ (re.+ (re.union (str.to_re "www") (str.to_re "xxx"))) (re.++ (re.* (re.union (str.to_re "yyy") (str.to_re "zz"))) (re.++ (re.+ (re.* (str.to_re "A"))) (re.++ (re.union (re.+ (str.to_re "BBB")) (re.+ (str.to_re "CC"))) (re.++ (re.union (re.* (str.to_re "DD")) (re.* (str.to_re "EE"))) (re.++ (re.+ (re.* (str.to_re "FFF"))) (re.++ (re.union (re.union (str.to_re "GG") (str.to_re "HH")) (re.union (str.to_re "III") (str.to_re "JJJ"))) (re.++ (re.* (re.+ (str.to_re "K"))) (re.++ (re.union (re.* (str.to_re "L")) (re.* (str.to_re "MM"))) (re.++ (re.+ (re.+ (str.to_re "N"))) (re.++ (re.+ (re.+ (str.to_re "O"))) (re.++ (re.* (re.+ (str.to_re "PPP"))) (re.++ (re.* (re.union (str.to_re "QQ") (str.to_re "RRR"))) (re.++ (re.+ (re.* (str.to_re "S"))) (re.++ (re.union (re.* (str.to_re "T")) (re.* (str.to_re "UUU"))) (re.++ (re.+ (re.+ (str.to_re "VV"))) (re.++ (re.union (re.union (str.to_re "W") (str.to_re "XX")) (re.union (str.to_re "YY") (str.to_re "Z"))) (re.++ (re.+ (re.+ (str.to_re "!"))) (re.++ (re.union (re.+ (str.to_re """")) (re.+ (str.to_re "###"))) (re.++ (re.* (re.union (str.to_re "$") (str.to_re "%%"))) (re.++ (re.union (re.union (str.to_re "&&") (str.to_re "''")) (re.union (str.to_re "(") (str.to_re ")))"))) (re.++ (re.union (re.+ (str.to_re "**")) (re.+ (str.to_re "+++"))) (re.++ (re.* (re.union (str.to_re ",,") (str.to_re "--"))) (re.++ (re.union (re.+ (str.to_re "..")) (re.+ (str.to_re "//"))) (re.++ (re.+ (re.union (str.to_re ":::") (str.to_re ";;"))) (re.++ (re.* (re.union (str.to_re "<") (str.to_re "=="))) (re.++ (re.* (re.union (str.to_re ">>>") (str.to_re "?"))) (re.++ (re.union (re.union (str.to_re "@@@") (str.to_re "[[")) (re.union (str.to_re "\\\\") (str.to_re "]]]"))) (re.++ (re.union (re.* (str.to_re "^^^")) (re.* (str.to_re "___"))) (re.++ (re.union (re.+ (str.to_re "`")) (re.+ (str.to_re "{{"))) (re.++ (re.* (re.* (str.to_re "||"))) (re.++ (re.union (re.* (str.to_re "}")) (re.* (str.to_re "~~~"))) (re.++ (re.+ (re.union (str.to_re "00") (str.to_re "11"))) (re.++ (re.+ (re.union (str.to_re "2") (str.to_re "33"))) (re.++ (re.* (re.+ (str.to_re "44"))) (re.++ (re.union (re.union (str.to_re "5") (str.to_re "6")) (re.union (str.to_re "7") (str.to_re "8"))) (re.++ (re.+ (re.+ (str.to_re "9"))) (re.++ (re.* (re.* (str.to_re "aaa"))) (re.++ (re.* (re.* (str.to_re "b"))) (re.++ (re.* (re.+ (str.to_re "ccc"))) (re.++ (re.+ (re.+ (str.to_re "d"))) (re.++ (re.+ (re.+ (str.to_re "e"))) (re.++ (re.* (re.union (str.to_re "ff") (str.to_re "ggg"))) (re.++ (re.union (re.union (str.to_re "hh") (str.to_re "ii")) (re.union (str.to_re "jjj") (str.to_re "kkk"))) (re.++ (re.union (re.union (str.to_re "lll") (str.to_re "mm")) (re.union (str.to_re "nn") (str.to_re "oo"))) (re.++ (re.union (re.+ (str.to_re "p")) (re.+ (str.to_re "qq"))) (re.++ (re.+ (re.union (str.to_re "r") (str.to_re "sss"))) (re.++ (re.union (re.* (str.to_re "ttt")) (re.* (str.to_re "uuu"))) (re.++ (re.union (re.* (str.to_re "v")) (re.* (str.to_re "ww"))) (re.++ (re.+ (re.+ (str.to_re "x"))) (re.++ (re.* (re.+ (str.to_re "yyy"))) (re.++ (re.+ (re.* (str.to_re "zzz"))) (re.++ (re.union (re.* (str.to_re "AAA")) (re.* (str.to_re "B"))) (re.++ (re.+ (re.+ (str.to_re "CC"))) (re.++ (re.+ (re.* (str.to_re "D"))) (re.++ (re.* (re.* (str.to_re "EE"))) (re.++ (re.union (re.+ (str.to_re "FFF")) (re.+ (str.to_re "GG"))) (re.++ (re.union (re.union (str.to_re "H") (str.to_re "I")) (re.union (str.to_re "JJ") (str.to_re "KK"))) (re.++ (re.* (re.+ (str.to_re "L"))) (re.++ (re.* (re.* (str.to_re "MM"))) (re.++ (re.union (re.+ (str.to_re "N")) (re.+ (str.to_re "OOO"))) (re.++ (re.* (re.union (str.to_re "PP") (str.to_re "Q"))) (re.++ (re.union (re.union (str.to_re "RRR") (str.to_re "S")) (re.union (str.to_re "TT") (str.to_re "UU"))) (re.++ (re.union (re.+ (str.to_re "VV")) (re.+ (str.to_re "WWW"))) (re.++ (re.union (re.union (str.to_re "XX") (str.to_re "Y")) (re.union (str.to_re "Z") (str.to_re "!!!"))) (re.++ (re.+ (re.* (str.to_re """"""""))) (re.++ (re.union (re.* (str.to_re "###")) (re.* (str.to_re "$"))) (re.++ (re.union (re.union (str.to_re "%%") (str.to_re "&&")) (re.union (str.to_re "'''") (str.to_re "((("))) (re.++ (re.* (re.+ (str.to_re ")"))) (re.++ (re.* (re.* (str.to_re "**"))) (re.++ (re.union (re.union (str.to_re "++") (str.to_re ",,,")) (re.union (str.to_re "--") (str.to_re "."))) (re.++ (re.* (re.union (str.to_re "///") (str.to_re "::"))) (re.++ (re.+ (re.+ (str.to_re ";"))) (re.++ (re.+ (re.+ (str.to_re "<"))) (re.++ (re.* (re.union (str.to_re "===") (str.to_re ">"))) (re.++ (re.union (re.* (str.to_re "??")) (re.* (str.to_re "@@"))) (re.++ (re.+ (re.+ (str.to_re "[[["))) (re.++ (re.union (re.+ (str.to_re "\\\\")) (re.+ (str.to_re "]]"))) (re.++ (re.union (re.* (str.to_re "^")) (re.* (str.to_re "__"))) (re.++ (re.+ (re.union (str.to_re "```") (str.to_re "{{"))) (re.++ (re.+ (re.union (str.to_re "|||") (str.to_re "}}"))) (re.++ (re.* (re.+ (str.to_re "~"))) (re.++ (re.union (re.* (str.to_re "000")) (re.* (str.to_re "1"))) (re.++ (re.* (re.* (str.to_re "2"))) (re.++ (re.+ (re.+ (str.to_re "3"))) (re.++ (re.union (re.union (str.to_re "44") (str.to_re "5")) (re.union (str.to_re "666") (str.to_re "7"))) (re.++ (re.+ (re.union (str.to_re "88") (str.to_re "99"))) (re.++ (re.union (re.* (str.to_re "aa")) (re.* (str.to_re "bb"))) (re.++ (re.+ (re.+ (str.to_re "ccc"))) (re.++ (re.+ (re.+ (str.to_re "ddd"))) (re.++ (re.* (re.+ (str.to_re "e"))) (re.++ (re.+ (re.+ (str.to_re "fff"))) (re.++ (re.* (re.union (str.to_re "gg") (str.to_re "hh"))) (re.++ (re.union (re.+ (str.to_re "i")) (re.+ (str.to_re "jjj"))) (re.++ (re.+ (re.union (str.to_re "k") (str.to_re "l"))) (re.++ (re.+ (re.union (str.to_re "mm") (str.to_re "n"))) (re.++ (re.+ (re.* (str.to_re "o"))) (re.++ (re.* (re.* (str.to_re "p"))) (re.++ (re.union (re.union (str.to_re "q") (str.to_re "rrr")) (re.union (str.to_re "ss") (str.to_re "t"))) (re.++ (re.+ (re.union (str.to_re "uu") (str.to_re "vvv"))) (re.++ (re.* (re.* (str.to_re "w"))) (re.++ (re.union (re.* (str.to_re "xx")) (re.* (str.to_re "yyy"))) (re.++ (re.* (re.union (str.to_re "z") (str.to_re "A"))) (re.++ (re.+ (re.union (str.to_re "B") (str.to_re "CC"))) (re.++ (re.union (re.* (str.to_re "D")) (re.* (str.to_re "EE"))) (re.++ (re.* (re.* (str.to_re "FF"))) (re.++ (re.+ (re.+ (str.to_re "G"))) (re.++ (re.+ (re.+ (str.to_re "HHH"))) (re.++ (re.union (re.union (str.to_re "II") (str.to_re "J")) (re.union (str.to_re "KK") (str.to_re "LLL"))) (re.++ (re.+ (re.* (str.to_re "MM"))) (re.++ (re.+ (re.+ (str.to_re "N"))) (re.++ (re.+ (re.union (str.to_re "O") (str.to_re "PP"))) (re.++ (re.+ (re.+ (str.to_re "QQ"))) (re.++ (re.* (re.+ (str.to_re "R"))) (re.++ (re.union (re.* (str.to_re "SS")) (re.* (str.to_re "TT"))) (re.++ (re.union (re.* (str.to_re "UU")) (re.* (str.to_re "VV"))) (re.+ (re.union (str.to_re "WWW") (str.to_re "XXX"))))))))))))))))))))))))))))))))))))))))))))))))))))))))))))))))))))))))))))))))))))))))))))))))))))))))))))))))))))))))))))))))))))))))))
(check-sat)